1
120
86
1 3
3 2
4 2
5 1
7 3
8 2
9 3
10 2
12 2
13 5
15 3
16 2
17 3
18 2
19 3
20 3
22 2
23 2
24 1
25 1
26 1
27 1
28 1
29 4
30 1
31 1
32 4
33 4
34 4
35 2
36 3
37 1
38 1
39 5
40 4
41 1
42 2
43 3
44 1
46 1
47 3
48 2
49 1
50 2
51 3
52 2
53 3
54 2
55 2
57 3
58 3
59 2
60 2
62 4
63 3
65 2
66 2
67 1
68 2
69 2
70 5
71 1
72 5
73 2
74 2
75 3
76 3
77 2
78 1
79 2
80 2
81 3
82 1
83 1
85 4
86 3
87 1
88 2
89 5
90 2
92 1
93 2
96 4
97 2
98 1
100 2
